! generated by mcif2qewan.py
&control
  calculation = 'scf'
  prefix = 'pwscf'
  pseudo_dir = '/home4/koretsune/PWSCF/pseudo_psl031'
  outdir = './work'
  tstress = .true.
  tprnfor = .true.
  wf_collect = .true.
  disk_io = 'low'
/
&system
  nat = 2
  ntyp = 2
  ecutwfc = 64.0
  ecutrho = 782.0
  occupations = 'smearing'
  smearing = 'm-p'
  degauss = 0.01
  ibrav = 6
  A = 2.728143
  C = 3.778984
  nspin = 2
  starting_magnetization(1) = 3.0
  starting_magnetization(2) = 3.0
/
&electrons
  mixing_beta = 0.1
  conv_thr = 1.d-8
/
ATOMIC_SPECIES
Fe   55.845000  Fe.pbe-spn-rrkjus_psl.0.2.1.UPF
Pt   195.084000  Pt.pbe-n-rrkjus_psl.0.1.UPF

ATOMIC_POSITIONS {crystal}
Fe      0.0000000000     0.0000000000     0.0000000000
Pt      0.5000000000     0.5000000000     0.5000000000

K_POINTS {automatic}
13 13 9 0 0 0
