Fe1 Pt1
1.0
2.728143 0.000000 0.000000
0.000000 2.728143 0.000000
0.000000 0.000000 3.778984
Fe Pt
1 1
direct
0.000000 0.000000 0.000000 Fe
0.500000 0.500000 0.500000 Pt
