&projwfc
prefix = 'pwscf'
outdir = './work'
degauss = 0.01
/