! generated by mcif2qewan.py
num_bands = 90
num_wann = 36
dis_num_iter = 200
num_iter = 0
dis_froz_max = 20.9686000000
dis_froz_min = -1000
spinors = .true.
write_hr = .true.
write_tb = .true.
bands_plot = .true.
fermi_surface_plot = .false.
wannier_plot = .false.
exclude_bands = 1-8

begin projections
Fe: s,p,d  [1,0,0]
Ni: s,p,d  [1,0,0]
end projections

begin unit_cell_cart
ang
   2.5066110000     0.0000000000     0.0000000000
   0.0000000000     2.5066110000     0.0000000000
   0.0000000000     0.0000000000     3.5813160000
end unit_cell_cart

begin atoms_frac
Fe      0.0000000000     0.0000000000     0.0000000000
Ni      0.5000000000     0.5000000000     0.5000000000
end atoms_frac

mp_grid: 9 9 7

begin kpoints
  0.0000000000    0.0000000000    0.0000000000
  0.0000000000    0.0000000000    0.1428571429
  0.0000000000    0.0000000000    0.2857142857
  0.0000000000    0.0000000000    0.4285714286
  0.0000000000    0.0000000000   -0.4285714286
  0.0000000000    0.0000000000   -0.2857142857
  0.0000000000    0.0000000000   -0.1428571429
  0.0000000000    0.1111111111    0.0000000000
  0.0000000000    0.1111111111    0.1428571429
  0.0000000000    0.1111111111    0.2857142857
  0.0000000000    0.1111111111    0.4285714286
  0.0000000000    0.1111111111   -0.4285714286
  0.0000000000    0.1111111111   -0.2857142857
  0.0000000000    0.1111111111   -0.1428571429
  0.0000000000    0.2222222222    0.0000000000
  0.0000000000    0.2222222222    0.1428571429
  0.0000000000    0.2222222222    0.2857142857
  0.0000000000    0.2222222222    0.4285714286
  0.0000000000    0.2222222222   -0.4285714286
  0.0000000000    0.2222222222   -0.2857142857
  0.0000000000    0.2222222222   -0.1428571429
  0.0000000000    0.3333333333    0.0000000000
  0.0000000000    0.3333333333    0.1428571429
  0.0000000000    0.3333333333    0.2857142857
  0.0000000000    0.3333333333    0.4285714286
  0.0000000000    0.3333333333   -0.4285714286
  0.0000000000    0.3333333333   -0.2857142857
  0.0000000000    0.3333333333   -0.1428571429
  0.0000000000    0.4444444444    0.0000000000
  0.0000000000    0.4444444444    0.1428571429
  0.0000000000    0.4444444444    0.2857142857
  0.0000000000    0.4444444444    0.4285714286
  0.0000000000    0.4444444444   -0.4285714286
  0.0000000000    0.4444444444   -0.2857142857
  0.0000000000    0.4444444444   -0.1428571429
  0.0000000000   -0.4444444444    0.0000000000
  0.0000000000   -0.4444444444    0.1428571429
  0.0000000000   -0.4444444444    0.2857142857
  0.0000000000   -0.4444444444    0.4285714286
  0.0000000000   -0.4444444444   -0.4285714286
  0.0000000000   -0.4444444444   -0.2857142857
  0.0000000000   -0.4444444444   -0.1428571429
  0.0000000000   -0.3333333333    0.0000000000
  0.0000000000   -0.3333333333    0.1428571429
  0.0000000000   -0.3333333333    0.2857142857
  0.0000000000   -0.3333333333    0.4285714286
  0.0000000000   -0.3333333333   -0.4285714286
  0.0000000000   -0.3333333333   -0.2857142857
  0.0000000000   -0.3333333333   -0.1428571429
  0.0000000000   -0.2222222222    0.0000000000
  0.0000000000   -0.2222222222    0.1428571429
  0.0000000000   -0.2222222222    0.2857142857
  0.0000000000   -0.2222222222    0.4285714286
  0.0000000000   -0.2222222222   -0.4285714286
  0.0000000000   -0.2222222222   -0.2857142857
  0.0000000000   -0.2222222222   -0.1428571429
  0.0000000000   -0.1111111111    0.0000000000
  0.0000000000   -0.1111111111    0.1428571429
  0.0000000000   -0.1111111111    0.2857142857
  0.0000000000   -0.1111111111    0.4285714286
  0.0000000000   -0.1111111111   -0.4285714286
  0.0000000000   -0.1111111111   -0.2857142857
  0.0000000000   -0.1111111111   -0.1428571429
  0.1111111111    0.0000000000    0.0000000000
  0.1111111111    0.0000000000    0.1428571429
  0.1111111111    0.0000000000    0.2857142857
  0.1111111111    0.0000000000    0.4285714286
  0.1111111111    0.0000000000   -0.4285714286
  0.1111111111    0.0000000000   -0.2857142857
  0.1111111111    0.0000000000   -0.1428571429
  0.1111111111    0.1111111111    0.0000000000
  0.1111111111    0.1111111111    0.1428571429
  0.1111111111    0.1111111111    0.2857142857
  0.1111111111    0.1111111111    0.4285714286
  0.1111111111    0.1111111111   -0.4285714286
  0.1111111111    0.1111111111   -0.2857142857
  0.1111111111    0.1111111111   -0.1428571429
  0.1111111111    0.2222222222    0.0000000000
  0.1111111111    0.2222222222    0.1428571429
  0.1111111111    0.2222222222    0.2857142857
  0.1111111111    0.2222222222    0.4285714286
  0.1111111111    0.2222222222   -0.4285714286
  0.1111111111    0.2222222222   -0.2857142857
  0.1111111111    0.2222222222   -0.1428571429
  0.1111111111    0.3333333333    0.0000000000
  0.1111111111    0.3333333333    0.1428571429
  0.1111111111    0.3333333333    0.2857142857
  0.1111111111    0.3333333333    0.4285714286
  0.1111111111    0.3333333333   -0.4285714286
  0.1111111111    0.3333333333   -0.2857142857
  0.1111111111    0.3333333333   -0.1428571429
  0.1111111111    0.4444444444    0.0000000000
  0.1111111111    0.4444444444    0.1428571429
  0.1111111111    0.4444444444    0.2857142857
  0.1111111111    0.4444444444    0.4285714286
  0.1111111111    0.4444444444   -0.4285714286
  0.1111111111    0.4444444444   -0.2857142857
  0.1111111111    0.4444444444   -0.1428571429
  0.1111111111   -0.4444444444    0.0000000000
  0.1111111111   -0.4444444444    0.1428571429
  0.1111111111   -0.4444444444    0.2857142857
  0.1111111111   -0.4444444444    0.4285714286
  0.1111111111   -0.4444444444   -0.4285714286
  0.1111111111   -0.4444444444   -0.2857142857
  0.1111111111   -0.4444444444   -0.1428571429
  0.1111111111   -0.3333333333    0.0000000000
  0.1111111111   -0.3333333333    0.1428571429
  0.1111111111   -0.3333333333    0.2857142857
  0.1111111111   -0.3333333333    0.4285714286
  0.1111111111   -0.3333333333   -0.4285714286
  0.1111111111   -0.3333333333   -0.2857142857
  0.1111111111   -0.3333333333   -0.1428571429
  0.1111111111   -0.2222222222    0.0000000000
  0.1111111111   -0.2222222222    0.1428571429
  0.1111111111   -0.2222222222    0.2857142857
  0.1111111111   -0.2222222222    0.4285714286
  0.1111111111   -0.2222222222   -0.4285714286
  0.1111111111   -0.2222222222   -0.2857142857
  0.1111111111   -0.2222222222   -0.1428571429
  0.1111111111   -0.1111111111    0.0000000000
  0.1111111111   -0.1111111111    0.1428571429
  0.1111111111   -0.1111111111    0.2857142857
  0.1111111111   -0.1111111111    0.4285714286
  0.1111111111   -0.1111111111   -0.4285714286
  0.1111111111   -0.1111111111   -0.2857142857
  0.1111111111   -0.1111111111   -0.1428571429
  0.2222222222    0.0000000000    0.0000000000
  0.2222222222    0.0000000000    0.1428571429
  0.2222222222    0.0000000000    0.2857142857
  0.2222222222    0.0000000000    0.4285714286
  0.2222222222    0.0000000000   -0.4285714286
  0.2222222222    0.0000000000   -0.2857142857
  0.2222222222    0.0000000000   -0.1428571429
  0.2222222222    0.1111111111    0.0000000000
  0.2222222222    0.1111111111    0.1428571429
  0.2222222222    0.1111111111    0.2857142857
  0.2222222222    0.1111111111    0.4285714286
  0.2222222222    0.1111111111   -0.4285714286
  0.2222222222    0.1111111111   -0.2857142857
  0.2222222222    0.1111111111   -0.1428571429
  0.2222222222    0.2222222222    0.0000000000
  0.2222222222    0.2222222222    0.1428571429
  0.2222222222    0.2222222222    0.2857142857
  0.2222222222    0.2222222222    0.4285714286
  0.2222222222    0.2222222222   -0.4285714286
  0.2222222222    0.2222222222   -0.2857142857
  0.2222222222    0.2222222222   -0.1428571429
  0.2222222222    0.3333333333    0.0000000000
  0.2222222222    0.3333333333    0.1428571429
  0.2222222222    0.3333333333    0.2857142857
  0.2222222222    0.3333333333    0.4285714286
  0.2222222222    0.3333333333   -0.4285714286
  0.2222222222    0.3333333333   -0.2857142857
  0.2222222222    0.3333333333   -0.1428571429
  0.2222222222    0.4444444444    0.0000000000
  0.2222222222    0.4444444444    0.1428571429
  0.2222222222    0.4444444444    0.2857142857
  0.2222222222    0.4444444444    0.4285714286
  0.2222222222    0.4444444444   -0.4285714286
  0.2222222222    0.4444444444   -0.2857142857
  0.2222222222    0.4444444444   -0.1428571429
  0.2222222222   -0.4444444444    0.0000000000
  0.2222222222   -0.4444444444    0.1428571429
  0.2222222222   -0.4444444444    0.2857142857
  0.2222222222   -0.4444444444    0.4285714286
  0.2222222222   -0.4444444444   -0.4285714286
  0.2222222222   -0.4444444444   -0.2857142857
  0.2222222222   -0.4444444444   -0.1428571429
  0.2222222222   -0.3333333333    0.0000000000
  0.2222222222   -0.3333333333    0.1428571429
  0.2222222222   -0.3333333333    0.2857142857
  0.2222222222   -0.3333333333    0.4285714286
  0.2222222222   -0.3333333333   -0.4285714286
  0.2222222222   -0.3333333333   -0.2857142857
  0.2222222222   -0.3333333333   -0.1428571429
  0.2222222222   -0.2222222222    0.0000000000
  0.2222222222   -0.2222222222    0.1428571429
  0.2222222222   -0.2222222222    0.2857142857
  0.2222222222   -0.2222222222    0.4285714286
  0.2222222222   -0.2222222222   -0.4285714286
  0.2222222222   -0.2222222222   -0.2857142857
  0.2222222222   -0.2222222222   -0.1428571429
  0.2222222222   -0.1111111111    0.0000000000
  0.2222222222   -0.1111111111    0.1428571429
  0.2222222222   -0.1111111111    0.2857142857
  0.2222222222   -0.1111111111    0.4285714286
  0.2222222222   -0.1111111111   -0.4285714286
  0.2222222222   -0.1111111111   -0.2857142857
  0.2222222222   -0.1111111111   -0.1428571429
  0.3333333333    0.0000000000    0.0000000000
  0.3333333333    0.0000000000    0.1428571429
  0.3333333333    0.0000000000    0.2857142857
  0.3333333333    0.0000000000    0.4285714286
  0.3333333333    0.0000000000   -0.4285714286
  0.3333333333    0.0000000000   -0.2857142857
  0.3333333333    0.0000000000   -0.1428571429
  0.3333333333    0.1111111111    0.0000000000
  0.3333333333    0.1111111111    0.1428571429
  0.3333333333    0.1111111111    0.2857142857
  0.3333333333    0.1111111111    0.4285714286
  0.3333333333    0.1111111111   -0.4285714286
  0.3333333333    0.1111111111   -0.2857142857
  0.3333333333    0.1111111111   -0.1428571429
  0.3333333333    0.2222222222    0.0000000000
  0.3333333333    0.2222222222    0.1428571429
  0.3333333333    0.2222222222    0.2857142857
  0.3333333333    0.2222222222    0.4285714286
  0.3333333333    0.2222222222   -0.4285714286
  0.3333333333    0.2222222222   -0.2857142857
  0.3333333333    0.2222222222   -0.1428571429
  0.3333333333    0.3333333333    0.0000000000
  0.3333333333    0.3333333333    0.1428571429
  0.3333333333    0.3333333333    0.2857142857
  0.3333333333    0.3333333333    0.4285714286
  0.3333333333    0.3333333333   -0.4285714286
  0.3333333333    0.3333333333   -0.2857142857
  0.3333333333    0.3333333333   -0.1428571429
  0.3333333333    0.4444444444    0.0000000000
  0.3333333333    0.4444444444    0.1428571429
  0.3333333333    0.4444444444    0.2857142857
  0.3333333333    0.4444444444    0.4285714286
  0.3333333333    0.4444444444   -0.4285714286
  0.3333333333    0.4444444444   -0.2857142857
  0.3333333333    0.4444444444   -0.1428571429
  0.3333333333   -0.4444444444    0.0000000000
  0.3333333333   -0.4444444444    0.1428571429
  0.3333333333   -0.4444444444    0.2857142857
  0.3333333333   -0.4444444444    0.4285714286
  0.3333333333   -0.4444444444   -0.4285714286
  0.3333333333   -0.4444444444   -0.2857142857
  0.3333333333   -0.4444444444   -0.1428571429
  0.3333333333   -0.3333333333    0.0000000000
  0.3333333333   -0.3333333333    0.1428571429
  0.3333333333   -0.3333333333    0.2857142857
  0.3333333333   -0.3333333333    0.4285714286
  0.3333333333   -0.3333333333   -0.4285714286
  0.3333333333   -0.3333333333   -0.2857142857
  0.3333333333   -0.3333333333   -0.1428571429
  0.3333333333   -0.2222222222    0.0000000000
  0.3333333333   -0.2222222222    0.1428571429
  0.3333333333   -0.2222222222    0.2857142857
  0.3333333333   -0.2222222222    0.4285714286
  0.3333333333   -0.2222222222   -0.4285714286
  0.3333333333   -0.2222222222   -0.2857142857
  0.3333333333   -0.2222222222   -0.1428571429
  0.3333333333   -0.1111111111    0.0000000000
  0.3333333333   -0.1111111111    0.1428571429
  0.3333333333   -0.1111111111    0.2857142857
  0.3333333333   -0.1111111111    0.4285714286
  0.3333333333   -0.1111111111   -0.4285714286
  0.3333333333   -0.1111111111   -0.2857142857
  0.3333333333   -0.1111111111   -0.1428571429
  0.4444444444    0.0000000000    0.0000000000
  0.4444444444    0.0000000000    0.1428571429
  0.4444444444    0.0000000000    0.2857142857
  0.4444444444    0.0000000000    0.4285714286
  0.4444444444    0.0000000000   -0.4285714286
  0.4444444444    0.0000000000   -0.2857142857
  0.4444444444    0.0000000000   -0.1428571429
  0.4444444444    0.1111111111    0.0000000000
  0.4444444444    0.1111111111    0.1428571429
  0.4444444444    0.1111111111    0.2857142857
  0.4444444444    0.1111111111    0.4285714286
  0.4444444444    0.1111111111   -0.4285714286
  0.4444444444    0.1111111111   -0.2857142857
  0.4444444444    0.1111111111   -0.1428571429
  0.4444444444    0.2222222222    0.0000000000
  0.4444444444    0.2222222222    0.1428571429
  0.4444444444    0.2222222222    0.2857142857
  0.4444444444    0.2222222222    0.4285714286
  0.4444444444    0.2222222222   -0.4285714286
  0.4444444444    0.2222222222   -0.2857142857
  0.4444444444    0.2222222222   -0.1428571429
  0.4444444444    0.3333333333    0.0000000000
  0.4444444444    0.3333333333    0.1428571429
  0.4444444444    0.3333333333    0.2857142857
  0.4444444444    0.3333333333    0.4285714286
  0.4444444444    0.3333333333   -0.4285714286
  0.4444444444    0.3333333333   -0.2857142857
  0.4444444444    0.3333333333   -0.1428571429
  0.4444444444    0.4444444444    0.0000000000
  0.4444444444    0.4444444444    0.1428571429
  0.4444444444    0.4444444444    0.2857142857
  0.4444444444    0.4444444444    0.4285714286
  0.4444444444    0.4444444444   -0.4285714286
  0.4444444444    0.4444444444   -0.2857142857
  0.4444444444    0.4444444444   -0.1428571429
  0.4444444444   -0.4444444444    0.0000000000
  0.4444444444   -0.4444444444    0.1428571429
  0.4444444444   -0.4444444444    0.2857142857
  0.4444444444   -0.4444444444    0.4285714286
  0.4444444444   -0.4444444444   -0.4285714286
  0.4444444444   -0.4444444444   -0.2857142857
  0.4444444444   -0.4444444444   -0.1428571429
  0.4444444444   -0.3333333333    0.0000000000
  0.4444444444   -0.3333333333    0.1428571429
  0.4444444444   -0.3333333333    0.2857142857
  0.4444444444   -0.3333333333    0.4285714286
  0.4444444444   -0.3333333333   -0.4285714286
  0.4444444444   -0.3333333333   -0.2857142857
  0.4444444444   -0.3333333333   -0.1428571429
  0.4444444444   -0.2222222222    0.0000000000
  0.4444444444   -0.2222222222    0.1428571429
  0.4444444444   -0.2222222222    0.2857142857
  0.4444444444   -0.2222222222    0.4285714286
  0.4444444444   -0.2222222222   -0.4285714286
  0.4444444444   -0.2222222222   -0.2857142857
  0.4444444444   -0.2222222222   -0.1428571429
  0.4444444444   -0.1111111111    0.0000000000
  0.4444444444   -0.1111111111    0.1428571429
  0.4444444444   -0.1111111111    0.2857142857
  0.4444444444   -0.1111111111    0.4285714286
  0.4444444444   -0.1111111111   -0.4285714286
  0.4444444444   -0.1111111111   -0.2857142857
  0.4444444444   -0.1111111111   -0.1428571429
 -0.4444444444    0.0000000000    0.0000000000
 -0.4444444444    0.0000000000    0.1428571429
 -0.4444444444    0.0000000000    0.2857142857
 -0.4444444444    0.0000000000    0.4285714286
 -0.4444444444    0.0000000000   -0.4285714286
 -0.4444444444    0.0000000000   -0.2857142857
 -0.4444444444    0.0000000000   -0.1428571429
 -0.4444444444    0.1111111111    0.0000000000
 -0.4444444444    0.1111111111    0.1428571429
 -0.4444444444    0.1111111111    0.2857142857
 -0.4444444444    0.1111111111    0.4285714286
 -0.4444444444    0.1111111111   -0.4285714286
 -0.4444444444    0.1111111111   -0.2857142857
 -0.4444444444    0.1111111111   -0.1428571429
 -0.4444444444    0.2222222222    0.0000000000
 -0.4444444444    0.2222222222    0.1428571429
 -0.4444444444    0.2222222222    0.2857142857
 -0.4444444444    0.2222222222    0.4285714286
 -0.4444444444    0.2222222222   -0.4285714286
 -0.4444444444    0.2222222222   -0.2857142857
 -0.4444444444    0.2222222222   -0.1428571429
 -0.4444444444    0.3333333333    0.0000000000
 -0.4444444444    0.3333333333    0.1428571429
 -0.4444444444    0.3333333333    0.2857142857
 -0.4444444444    0.3333333333    0.4285714286
 -0.4444444444    0.3333333333   -0.4285714286
 -0.4444444444    0.3333333333   -0.2857142857
 -0.4444444444    0.3333333333   -0.1428571429
 -0.4444444444    0.4444444444    0.0000000000
 -0.4444444444    0.4444444444    0.1428571429
 -0.4444444444    0.4444444444    0.2857142857
 -0.4444444444    0.4444444444    0.4285714286
 -0.4444444444    0.4444444444   -0.4285714286
 -0.4444444444    0.4444444444   -0.2857142857
 -0.4444444444    0.4444444444   -0.1428571429
 -0.4444444444   -0.4444444444    0.0000000000
 -0.4444444444   -0.4444444444    0.1428571429
 -0.4444444444   -0.4444444444    0.2857142857
 -0.4444444444   -0.4444444444    0.4285714286
 -0.4444444444   -0.4444444444   -0.4285714286
 -0.4444444444   -0.4444444444   -0.2857142857
 -0.4444444444   -0.4444444444   -0.1428571429
 -0.4444444444   -0.3333333333    0.0000000000
 -0.4444444444   -0.3333333333    0.1428571429
 -0.4444444444   -0.3333333333    0.2857142857
 -0.4444444444   -0.3333333333    0.4285714286
 -0.4444444444   -0.3333333333   -0.4285714286
 -0.4444444444   -0.3333333333   -0.2857142857
 -0.4444444444   -0.3333333333   -0.1428571429
 -0.4444444444   -0.2222222222    0.0000000000
 -0.4444444444   -0.2222222222    0.1428571429
 -0.4444444444   -0.2222222222    0.2857142857
 -0.4444444444   -0.2222222222    0.4285714286
 -0.4444444444   -0.2222222222   -0.4285714286
 -0.4444444444   -0.2222222222   -0.2857142857
 -0.4444444444   -0.2222222222   -0.1428571429
 -0.4444444444   -0.1111111111    0.0000000000
 -0.4444444444   -0.1111111111    0.1428571429
 -0.4444444444   -0.1111111111    0.2857142857
 -0.4444444444   -0.1111111111    0.4285714286
 -0.4444444444   -0.1111111111   -0.4285714286
 -0.4444444444   -0.1111111111   -0.2857142857
 -0.4444444444   -0.1111111111   -0.1428571429
 -0.3333333333    0.0000000000    0.0000000000
 -0.3333333333    0.0000000000    0.1428571429
 -0.3333333333    0.0000000000    0.2857142857
 -0.3333333333    0.0000000000    0.4285714286
 -0.3333333333    0.0000000000   -0.4285714286
 -0.3333333333    0.0000000000   -0.2857142857
 -0.3333333333    0.0000000000   -0.1428571429
 -0.3333333333    0.1111111111    0.0000000000
 -0.3333333333    0.1111111111    0.1428571429
 -0.3333333333    0.1111111111    0.2857142857
 -0.3333333333    0.1111111111    0.4285714286
 -0.3333333333    0.1111111111   -0.4285714286
 -0.3333333333    0.1111111111   -0.2857142857
 -0.3333333333    0.1111111111   -0.1428571429
 -0.3333333333    0.2222222222    0.0000000000
 -0.3333333333    0.2222222222    0.1428571429
 -0.3333333333    0.2222222222    0.2857142857
 -0.3333333333    0.2222222222    0.4285714286
 -0.3333333333    0.2222222222   -0.4285714286
 -0.3333333333    0.2222222222   -0.2857142857
 -0.3333333333    0.2222222222   -0.1428571429
 -0.3333333333    0.3333333333    0.0000000000
 -0.3333333333    0.3333333333    0.1428571429
 -0.3333333333    0.3333333333    0.2857142857
 -0.3333333333    0.3333333333    0.4285714286
 -0.3333333333    0.3333333333   -0.4285714286
 -0.3333333333    0.3333333333   -0.2857142857
 -0.3333333333    0.3333333333   -0.1428571429
 -0.3333333333    0.4444444444    0.0000000000
 -0.3333333333    0.4444444444    0.1428571429
 -0.3333333333    0.4444444444    0.2857142857
 -0.3333333333    0.4444444444    0.4285714286
 -0.3333333333    0.4444444444   -0.4285714286
 -0.3333333333    0.4444444444   -0.2857142857
 -0.3333333333    0.4444444444   -0.1428571429
 -0.3333333333   -0.4444444444    0.0000000000
 -0.3333333333   -0.4444444444    0.1428571429
 -0.3333333333   -0.4444444444    0.2857142857
 -0.3333333333   -0.4444444444    0.4285714286
 -0.3333333333   -0.4444444444   -0.4285714286
 -0.3333333333   -0.4444444444   -0.2857142857
 -0.3333333333   -0.4444444444   -0.1428571429
 -0.3333333333   -0.3333333333    0.0000000000
 -0.3333333333   -0.3333333333    0.1428571429
 -0.3333333333   -0.3333333333    0.2857142857
 -0.3333333333   -0.3333333333    0.4285714286
 -0.3333333333   -0.3333333333   -0.4285714286
 -0.3333333333   -0.3333333333   -0.2857142857
 -0.3333333333   -0.3333333333   -0.1428571429
 -0.3333333333   -0.2222222222    0.0000000000
 -0.3333333333   -0.2222222222    0.1428571429
 -0.3333333333   -0.2222222222    0.2857142857
 -0.3333333333   -0.2222222222    0.4285714286
 -0.3333333333   -0.2222222222   -0.4285714286
 -0.3333333333   -0.2222222222   -0.2857142857
 -0.3333333333   -0.2222222222   -0.1428571429
 -0.3333333333   -0.1111111111    0.0000000000
 -0.3333333333   -0.1111111111    0.1428571429
 -0.3333333333   -0.1111111111    0.2857142857
 -0.3333333333   -0.1111111111    0.4285714286
 -0.3333333333   -0.1111111111   -0.4285714286
 -0.3333333333   -0.1111111111   -0.2857142857
 -0.3333333333   -0.1111111111   -0.1428571429
 -0.2222222222    0.0000000000    0.0000000000
 -0.2222222222    0.0000000000    0.1428571429
 -0.2222222222    0.0000000000    0.2857142857
 -0.2222222222    0.0000000000    0.4285714286
 -0.2222222222    0.0000000000   -0.4285714286
 -0.2222222222    0.0000000000   -0.2857142857
 -0.2222222222    0.0000000000   -0.1428571429
 -0.2222222222    0.1111111111    0.0000000000
 -0.2222222222    0.1111111111    0.1428571429
 -0.2222222222    0.1111111111    0.2857142857
 -0.2222222222    0.1111111111    0.4285714286
 -0.2222222222    0.1111111111   -0.4285714286
 -0.2222222222    0.1111111111   -0.2857142857
 -0.2222222222    0.1111111111   -0.1428571429
 -0.2222222222    0.2222222222    0.0000000000
 -0.2222222222    0.2222222222    0.1428571429
 -0.2222222222    0.2222222222    0.2857142857
 -0.2222222222    0.2222222222    0.4285714286
 -0.2222222222    0.2222222222   -0.4285714286
 -0.2222222222    0.2222222222   -0.2857142857
 -0.2222222222    0.2222222222   -0.1428571429
 -0.2222222222    0.3333333333    0.0000000000
 -0.2222222222    0.3333333333    0.1428571429
 -0.2222222222    0.3333333333    0.2857142857
 -0.2222222222    0.3333333333    0.4285714286
 -0.2222222222    0.3333333333   -0.4285714286
 -0.2222222222    0.3333333333   -0.2857142857
 -0.2222222222    0.3333333333   -0.1428571429
 -0.2222222222    0.4444444444    0.0000000000
 -0.2222222222    0.4444444444    0.1428571429
 -0.2222222222    0.4444444444    0.2857142857
 -0.2222222222    0.4444444444    0.4285714286
 -0.2222222222    0.4444444444   -0.4285714286
 -0.2222222222    0.4444444444   -0.2857142857
 -0.2222222222    0.4444444444   -0.1428571429
 -0.2222222222   -0.4444444444    0.0000000000
 -0.2222222222   -0.4444444444    0.1428571429
 -0.2222222222   -0.4444444444    0.2857142857
 -0.2222222222   -0.4444444444    0.4285714286
 -0.2222222222   -0.4444444444   -0.4285714286
 -0.2222222222   -0.4444444444   -0.2857142857
 -0.2222222222   -0.4444444444   -0.1428571429
 -0.2222222222   -0.3333333333    0.0000000000
 -0.2222222222   -0.3333333333    0.1428571429
 -0.2222222222   -0.3333333333    0.2857142857
 -0.2222222222   -0.3333333333    0.4285714286
 -0.2222222222   -0.3333333333   -0.4285714286
 -0.2222222222   -0.3333333333   -0.2857142857
 -0.2222222222   -0.3333333333   -0.1428571429
 -0.2222222222   -0.2222222222    0.0000000000
 -0.2222222222   -0.2222222222    0.1428571429
 -0.2222222222   -0.2222222222    0.2857142857
 -0.2222222222   -0.2222222222    0.4285714286
 -0.2222222222   -0.2222222222   -0.4285714286
 -0.2222222222   -0.2222222222   -0.2857142857
 -0.2222222222   -0.2222222222   -0.1428571429
 -0.2222222222   -0.1111111111    0.0000000000
 -0.2222222222   -0.1111111111    0.1428571429
 -0.2222222222   -0.1111111111    0.2857142857
 -0.2222222222   -0.1111111111    0.4285714286
 -0.2222222222   -0.1111111111   -0.4285714286
 -0.2222222222   -0.1111111111   -0.2857142857
 -0.2222222222   -0.1111111111   -0.1428571429
 -0.1111111111    0.0000000000    0.0000000000
 -0.1111111111    0.0000000000    0.1428571429
 -0.1111111111    0.0000000000    0.2857142857
 -0.1111111111    0.0000000000    0.4285714286
 -0.1111111111    0.0000000000   -0.4285714286
 -0.1111111111    0.0000000000   -0.2857142857
 -0.1111111111    0.0000000000   -0.1428571429
 -0.1111111111    0.1111111111    0.0000000000
 -0.1111111111    0.1111111111    0.1428571429
 -0.1111111111    0.1111111111    0.2857142857
 -0.1111111111    0.1111111111    0.4285714286
 -0.1111111111    0.1111111111   -0.4285714286
 -0.1111111111    0.1111111111   -0.2857142857
 -0.1111111111    0.1111111111   -0.1428571429
 -0.1111111111    0.2222222222    0.0000000000
 -0.1111111111    0.2222222222    0.1428571429
 -0.1111111111    0.2222222222    0.2857142857
 -0.1111111111    0.2222222222    0.4285714286
 -0.1111111111    0.2222222222   -0.4285714286
 -0.1111111111    0.2222222222   -0.2857142857
 -0.1111111111    0.2222222222   -0.1428571429
 -0.1111111111    0.3333333333    0.0000000000
 -0.1111111111    0.3333333333    0.1428571429
 -0.1111111111    0.3333333333    0.2857142857
 -0.1111111111    0.3333333333    0.4285714286
 -0.1111111111    0.3333333333   -0.4285714286
 -0.1111111111    0.3333333333   -0.2857142857
 -0.1111111111    0.3333333333   -0.1428571429
 -0.1111111111    0.4444444444    0.0000000000
 -0.1111111111    0.4444444444    0.1428571429
 -0.1111111111    0.4444444444    0.2857142857
 -0.1111111111    0.4444444444    0.4285714286
 -0.1111111111    0.4444444444   -0.4285714286
 -0.1111111111    0.4444444444   -0.2857142857
 -0.1111111111    0.4444444444   -0.1428571429
 -0.1111111111   -0.4444444444    0.0000000000
 -0.1111111111   -0.4444444444    0.1428571429
 -0.1111111111   -0.4444444444    0.2857142857
 -0.1111111111   -0.4444444444    0.4285714286
 -0.1111111111   -0.4444444444   -0.4285714286
 -0.1111111111   -0.4444444444   -0.2857142857
 -0.1111111111   -0.4444444444   -0.1428571429
 -0.1111111111   -0.3333333333    0.0000000000
 -0.1111111111   -0.3333333333    0.1428571429
 -0.1111111111   -0.3333333333    0.2857142857
 -0.1111111111   -0.3333333333    0.4285714286
 -0.1111111111   -0.3333333333   -0.4285714286
 -0.1111111111   -0.3333333333   -0.2857142857
 -0.1111111111   -0.3333333333   -0.1428571429
 -0.1111111111   -0.2222222222    0.0000000000
 -0.1111111111   -0.2222222222    0.1428571429
 -0.1111111111   -0.2222222222    0.2857142857
 -0.1111111111   -0.2222222222    0.4285714286
 -0.1111111111   -0.2222222222   -0.4285714286
 -0.1111111111   -0.2222222222   -0.2857142857
 -0.1111111111   -0.2222222222   -0.1428571429
 -0.1111111111   -0.1111111111    0.0000000000
 -0.1111111111   -0.1111111111    0.1428571429
 -0.1111111111   -0.1111111111    0.2857142857
 -0.1111111111   -0.1111111111    0.4285714286
 -0.1111111111   -0.1111111111   -0.4285714286
 -0.1111111111   -0.1111111111   -0.2857142857
 -0.1111111111   -0.1111111111   -0.1428571429
end kpoints

begin kpoint_path
G  0.000000  0.000000  0.000000   X  0.000000  0.500000  0.000000
X  0.000000  0.500000  0.000000   M  0.500000  0.500000  0.000000
M  0.500000  0.500000  0.000000   G  0.000000  0.000000  0.000000
G  0.000000  0.000000  0.000000   Z  0.000000  0.000000  0.500000
Z  0.000000  0.000000  0.500000   R  0.000000  0.500000  0.500000
R  0.000000  0.500000  0.500000   A  0.500000  0.500000  0.500000
A  0.500000  0.500000  0.500000   Z  0.000000  0.000000  0.500000
X  0.000000  0.500000  0.000000   R  0.000000  0.500000  0.500000
M  0.500000  0.500000  0.000000   A  0.500000  0.500000  0.500000
end kpoint_path
