&bands
   outdir = './work/',
   prefix='pwscf',
   filband='band',
   lsym=.true.
/