! generated by mcif2qewan.py
&control
  calculation = 'nscf'
  prefix = 'pwscf'
  pseudo_dir = '/home4/koretsune/PWSCF/pseudo_psl031'
  outdir = './work'
  tstress = .true.
  tprnfor = .true.
  verbosity = 'high'
  disk_io = 'low'
  verbosity = 'high'
/
&system
  nat = 2
  ntyp = 2
  ecutwfc = 64.0
  ecutrho = 782.0
  occupations = 'smearing'
  smearing = 'm-p'
  degauss = 0.01
  ibrav = 6
  A = 2.506611
  C = 3.581316
  starting_magnetization(1) = 3.0
  starting_magnetization(2) = 3.0
  noncolin = .true.
  lforcet = .true.
  lspinorb = .true.
  
  angle1(1) = 0.0
  angle2(1) = 0.0
  angle1(2) = 0.0
  angle2(2) = 0.0
/
&electrons
  mixing_beta = 0.1
  conv_thr = 1.d-8
/
ATOMIC_SPECIES
Fe   55.845000  Fe.rel-pbe-spn-rrkjus_psl.0.2.1.UPF
Ni   58.693400  Ni.rel-pbe-n-rrkjus_psl.0.1.UPF

ATOMIC_POSITIONS {crystal}
Fe      0.0000000000     0.0000000000     0.0000000000
Ni      0.5000000000     0.5000000000     0.5000000000


K_POINTS {automatic}
 9 9 7 1 1 1

