Fe1 Ni1
1.0
2.506611 0.000000 0.000000
0.000000 2.506611 0.000000
0.000000 0.000000 3.581316
Fe Ni
1 1
direct
0.000000 0.000000 0.000000 Fe
0.500000 0.500000 0.500000 Ni
