! generated by mcif2qewan.py
&control
  calculation = 'nscf'
  prefix = 'pwscf'
  pseudo_dir = '/home2/koretsune/PWSCF/pseudo_psl031'
  outdir = './work'
  tstress = .true.
  tprnfor = .true.
  wf_collect = .true.
  disk_io = 'low'
  verbosity = 'high'
/
&system
  nat = 2
  ntyp = 2
  ecutwfc = 64.0
  ecutrho = 782.0
  occupations = 'smearing'
  smearing = 'm-p'
  degauss = 0.01
  ibrav = 6
  A = 2.728143
  C = 3.778984
  starting_magnetization(1) = 3.0
  starting_magnetization(2) = 3.0
  noncolin = .true.
  lforcet = .true.
  lspinorb = .true.
  nbnd = 98
  angle1(1) = 0.0
  angle2(1) = 0.0
  angle1(2) = 0.0
  angle2(2) = 0.0
/
&electrons
  mixing_beta = 0.1
  conv_thr = 1.d-8
/
ATOMIC_SPECIES
Fe   55.845000  Fe.rel-pbe-spn-rrkjus_psl.0.2.1.UPF
Pt   195.084000  Pt.rel-pbe-n-rrkjus_psl.0.1.UPF

ATOMIC_POSITIONS {crystal}
Fe      0.0000000000     0.0000000000     0.0000000000
Pt      0.5000000000     0.5000000000     0.5000000000

K_POINTS {crystal}
486
0.0000000000	0.0000000000	0.0000000000	1.0
0.0000000000	0.0000000000	0.1666666667	1.0
0.0000000000	0.0000000000	0.3333333333	1.0
0.0000000000	0.0000000000	-0.5000000000	1.0
0.0000000000	0.0000000000	-0.3333333333	1.0
0.0000000000	0.0000000000	-0.1666666667	1.0
0.0000000000	0.1111111111	0.0000000000	1.0
0.0000000000	0.1111111111	0.1666666667	1.0
0.0000000000	0.1111111111	0.3333333333	1.0
0.0000000000	0.1111111111	-0.5000000000	1.0
0.0000000000	0.1111111111	-0.3333333333	1.0
0.0000000000	0.1111111111	-0.1666666667	1.0
0.0000000000	0.2222222222	0.0000000000	1.0
0.0000000000	0.2222222222	0.1666666667	1.0
0.0000000000	0.2222222222	0.3333333333	1.0
0.0000000000	0.2222222222	-0.5000000000	1.0
0.0000000000	0.2222222222	-0.3333333333	1.0
0.0000000000	0.2222222222	-0.1666666667	1.0
0.0000000000	0.3333333333	0.0000000000	1.0
0.0000000000	0.3333333333	0.1666666667	1.0
0.0000000000	0.3333333333	0.3333333333	1.0
0.0000000000	0.3333333333	-0.5000000000	1.0
0.0000000000	0.3333333333	-0.3333333333	1.0
0.0000000000	0.3333333333	-0.1666666667	1.0
0.0000000000	0.4444444444	0.0000000000	1.0
0.0000000000	0.4444444444	0.1666666667	1.0
0.0000000000	0.4444444444	0.3333333333	1.0
0.0000000000	0.4444444444	-0.5000000000	1.0
0.0000000000	0.4444444444	-0.3333333333	1.0
0.0000000000	0.4444444444	-0.1666666667	1.0
0.0000000000	-0.4444444444	0.0000000000	1.0
0.0000000000	-0.4444444444	0.1666666667	1.0
0.0000000000	-0.4444444444	0.3333333333	1.0
0.0000000000	-0.4444444444	-0.5000000000	1.0
0.0000000000	-0.4444444444	-0.3333333333	1.0
0.0000000000	-0.4444444444	-0.1666666667	1.0
0.0000000000	-0.3333333333	0.0000000000	1.0
0.0000000000	-0.3333333333	0.1666666667	1.0
0.0000000000	-0.3333333333	0.3333333333	1.0
0.0000000000	-0.3333333333	-0.5000000000	1.0
0.0000000000	-0.3333333333	-0.3333333333	1.0
0.0000000000	-0.3333333333	-0.1666666667	1.0
0.0000000000	-0.2222222222	0.0000000000	1.0
0.0000000000	-0.2222222222	0.1666666667	1.0
0.0000000000	-0.2222222222	0.3333333333	1.0
0.0000000000	-0.2222222222	-0.5000000000	1.0
0.0000000000	-0.2222222222	-0.3333333333	1.0
0.0000000000	-0.2222222222	-0.1666666667	1.0
0.0000000000	-0.1111111111	0.0000000000	1.0
0.0000000000	-0.1111111111	0.1666666667	1.0
0.0000000000	-0.1111111111	0.3333333333	1.0
0.0000000000	-0.1111111111	-0.5000000000	1.0
0.0000000000	-0.1111111111	-0.3333333333	1.0
0.0000000000	-0.1111111111	-0.1666666667	1.0
0.1111111111	0.0000000000	0.0000000000	1.0
0.1111111111	0.0000000000	0.1666666667	1.0
0.1111111111	0.0000000000	0.3333333333	1.0
0.1111111111	0.0000000000	-0.5000000000	1.0
0.1111111111	0.0000000000	-0.3333333333	1.0
0.1111111111	0.0000000000	-0.1666666667	1.0
0.1111111111	0.1111111111	0.0000000000	1.0
0.1111111111	0.1111111111	0.1666666667	1.0
0.1111111111	0.1111111111	0.3333333333	1.0
0.1111111111	0.1111111111	-0.5000000000	1.0
0.1111111111	0.1111111111	-0.3333333333	1.0
0.1111111111	0.1111111111	-0.1666666667	1.0
0.1111111111	0.2222222222	0.0000000000	1.0
0.1111111111	0.2222222222	0.1666666667	1.0
0.1111111111	0.2222222222	0.3333333333	1.0
0.1111111111	0.2222222222	-0.5000000000	1.0
0.1111111111	0.2222222222	-0.3333333333	1.0
0.1111111111	0.2222222222	-0.1666666667	1.0
0.1111111111	0.3333333333	0.0000000000	1.0
0.1111111111	0.3333333333	0.1666666667	1.0
0.1111111111	0.3333333333	0.3333333333	1.0
0.1111111111	0.3333333333	-0.5000000000	1.0
0.1111111111	0.3333333333	-0.3333333333	1.0
0.1111111111	0.3333333333	-0.1666666667	1.0
0.1111111111	0.4444444444	0.0000000000	1.0
0.1111111111	0.4444444444	0.1666666667	1.0
0.1111111111	0.4444444444	0.3333333333	1.0
0.1111111111	0.4444444444	-0.5000000000	1.0
0.1111111111	0.4444444444	-0.3333333333	1.0
0.1111111111	0.4444444444	-0.1666666667	1.0
0.1111111111	-0.4444444444	0.0000000000	1.0
0.1111111111	-0.4444444444	0.1666666667	1.0
0.1111111111	-0.4444444444	0.3333333333	1.0
0.1111111111	-0.4444444444	-0.5000000000	1.0
0.1111111111	-0.4444444444	-0.3333333333	1.0
0.1111111111	-0.4444444444	-0.1666666667	1.0
0.1111111111	-0.3333333333	0.0000000000	1.0
0.1111111111	-0.3333333333	0.1666666667	1.0
0.1111111111	-0.3333333333	0.3333333333	1.0
0.1111111111	-0.3333333333	-0.5000000000	1.0
0.1111111111	-0.3333333333	-0.3333333333	1.0
0.1111111111	-0.3333333333	-0.1666666667	1.0
0.1111111111	-0.2222222222	0.0000000000	1.0
0.1111111111	-0.2222222222	0.1666666667	1.0
0.1111111111	-0.2222222222	0.3333333333	1.0
0.1111111111	-0.2222222222	-0.5000000000	1.0
0.1111111111	-0.2222222222	-0.3333333333	1.0
0.1111111111	-0.2222222222	-0.1666666667	1.0
0.1111111111	-0.1111111111	0.0000000000	1.0
0.1111111111	-0.1111111111	0.1666666667	1.0
0.1111111111	-0.1111111111	0.3333333333	1.0
0.1111111111	-0.1111111111	-0.5000000000	1.0
0.1111111111	-0.1111111111	-0.3333333333	1.0
0.1111111111	-0.1111111111	-0.1666666667	1.0
0.2222222222	0.0000000000	0.0000000000	1.0
0.2222222222	0.0000000000	0.1666666667	1.0
0.2222222222	0.0000000000	0.3333333333	1.0
0.2222222222	0.0000000000	-0.5000000000	1.0
0.2222222222	0.0000000000	-0.3333333333	1.0
0.2222222222	0.0000000000	-0.1666666667	1.0
0.2222222222	0.1111111111	0.0000000000	1.0
0.2222222222	0.1111111111	0.1666666667	1.0
0.2222222222	0.1111111111	0.3333333333	1.0
0.2222222222	0.1111111111	-0.5000000000	1.0
0.2222222222	0.1111111111	-0.3333333333	1.0
0.2222222222	0.1111111111	-0.1666666667	1.0
0.2222222222	0.2222222222	0.0000000000	1.0
0.2222222222	0.2222222222	0.1666666667	1.0
0.2222222222	0.2222222222	0.3333333333	1.0
0.2222222222	0.2222222222	-0.5000000000	1.0
0.2222222222	0.2222222222	-0.3333333333	1.0
0.2222222222	0.2222222222	-0.1666666667	1.0
0.2222222222	0.3333333333	0.0000000000	1.0
0.2222222222	0.3333333333	0.1666666667	1.0
0.2222222222	0.3333333333	0.3333333333	1.0
0.2222222222	0.3333333333	-0.5000000000	1.0
0.2222222222	0.3333333333	-0.3333333333	1.0
0.2222222222	0.3333333333	-0.1666666667	1.0
0.2222222222	0.4444444444	0.0000000000	1.0
0.2222222222	0.4444444444	0.1666666667	1.0
0.2222222222	0.4444444444	0.3333333333	1.0
0.2222222222	0.4444444444	-0.5000000000	1.0
0.2222222222	0.4444444444	-0.3333333333	1.0
0.2222222222	0.4444444444	-0.1666666667	1.0
0.2222222222	-0.4444444444	0.0000000000	1.0
0.2222222222	-0.4444444444	0.1666666667	1.0
0.2222222222	-0.4444444444	0.3333333333	1.0
0.2222222222	-0.4444444444	-0.5000000000	1.0
0.2222222222	-0.4444444444	-0.3333333333	1.0
0.2222222222	-0.4444444444	-0.1666666667	1.0
0.2222222222	-0.3333333333	0.0000000000	1.0
0.2222222222	-0.3333333333	0.1666666667	1.0
0.2222222222	-0.3333333333	0.3333333333	1.0
0.2222222222	-0.3333333333	-0.5000000000	1.0
0.2222222222	-0.3333333333	-0.3333333333	1.0
0.2222222222	-0.3333333333	-0.1666666667	1.0
0.2222222222	-0.2222222222	0.0000000000	1.0
0.2222222222	-0.2222222222	0.1666666667	1.0
0.2222222222	-0.2222222222	0.3333333333	1.0
0.2222222222	-0.2222222222	-0.5000000000	1.0
0.2222222222	-0.2222222222	-0.3333333333	1.0
0.2222222222	-0.2222222222	-0.1666666667	1.0
0.2222222222	-0.1111111111	0.0000000000	1.0
0.2222222222	-0.1111111111	0.1666666667	1.0
0.2222222222	-0.1111111111	0.3333333333	1.0
0.2222222222	-0.1111111111	-0.5000000000	1.0
0.2222222222	-0.1111111111	-0.3333333333	1.0
0.2222222222	-0.1111111111	-0.1666666667	1.0
0.3333333333	0.0000000000	0.0000000000	1.0
0.3333333333	0.0000000000	0.1666666667	1.0
0.3333333333	0.0000000000	0.3333333333	1.0
0.3333333333	0.0000000000	-0.5000000000	1.0
0.3333333333	0.0000000000	-0.3333333333	1.0
0.3333333333	0.0000000000	-0.1666666667	1.0
0.3333333333	0.1111111111	0.0000000000	1.0
0.3333333333	0.1111111111	0.1666666667	1.0
0.3333333333	0.1111111111	0.3333333333	1.0
0.3333333333	0.1111111111	-0.5000000000	1.0
0.3333333333	0.1111111111	-0.3333333333	1.0
0.3333333333	0.1111111111	-0.1666666667	1.0
0.3333333333	0.2222222222	0.0000000000	1.0
0.3333333333	0.2222222222	0.1666666667	1.0
0.3333333333	0.2222222222	0.3333333333	1.0
0.3333333333	0.2222222222	-0.5000000000	1.0
0.3333333333	0.2222222222	-0.3333333333	1.0
0.3333333333	0.2222222222	-0.1666666667	1.0
0.3333333333	0.3333333333	0.0000000000	1.0
0.3333333333	0.3333333333	0.1666666667	1.0
0.3333333333	0.3333333333	0.3333333333	1.0
0.3333333333	0.3333333333	-0.5000000000	1.0
0.3333333333	0.3333333333	-0.3333333333	1.0
0.3333333333	0.3333333333	-0.1666666667	1.0
0.3333333333	0.4444444444	0.0000000000	1.0
0.3333333333	0.4444444444	0.1666666667	1.0
0.3333333333	0.4444444444	0.3333333333	1.0
0.3333333333	0.4444444444	-0.5000000000	1.0
0.3333333333	0.4444444444	-0.3333333333	1.0
0.3333333333	0.4444444444	-0.1666666667	1.0
0.3333333333	-0.4444444444	0.0000000000	1.0
0.3333333333	-0.4444444444	0.1666666667	1.0
0.3333333333	-0.4444444444	0.3333333333	1.0
0.3333333333	-0.4444444444	-0.5000000000	1.0
0.3333333333	-0.4444444444	-0.3333333333	1.0
0.3333333333	-0.4444444444	-0.1666666667	1.0
0.3333333333	-0.3333333333	0.0000000000	1.0
0.3333333333	-0.3333333333	0.1666666667	1.0
0.3333333333	-0.3333333333	0.3333333333	1.0
0.3333333333	-0.3333333333	-0.5000000000	1.0
0.3333333333	-0.3333333333	-0.3333333333	1.0
0.3333333333	-0.3333333333	-0.1666666667	1.0
0.3333333333	-0.2222222222	0.0000000000	1.0
0.3333333333	-0.2222222222	0.1666666667	1.0
0.3333333333	-0.2222222222	0.3333333333	1.0
0.3333333333	-0.2222222222	-0.5000000000	1.0
0.3333333333	-0.2222222222	-0.3333333333	1.0
0.3333333333	-0.2222222222	-0.1666666667	1.0
0.3333333333	-0.1111111111	0.0000000000	1.0
0.3333333333	-0.1111111111	0.1666666667	1.0
0.3333333333	-0.1111111111	0.3333333333	1.0
0.3333333333	-0.1111111111	-0.5000000000	1.0
0.3333333333	-0.1111111111	-0.3333333333	1.0
0.3333333333	-0.1111111111	-0.1666666667	1.0
0.4444444444	0.0000000000	0.0000000000	1.0
0.4444444444	0.0000000000	0.1666666667	1.0
0.4444444444	0.0000000000	0.3333333333	1.0
0.4444444444	0.0000000000	-0.5000000000	1.0
0.4444444444	0.0000000000	-0.3333333333	1.0
0.4444444444	0.0000000000	-0.1666666667	1.0
0.4444444444	0.1111111111	0.0000000000	1.0
0.4444444444	0.1111111111	0.1666666667	1.0
0.4444444444	0.1111111111	0.3333333333	1.0
0.4444444444	0.1111111111	-0.5000000000	1.0
0.4444444444	0.1111111111	-0.3333333333	1.0
0.4444444444	0.1111111111	-0.1666666667	1.0
0.4444444444	0.2222222222	0.0000000000	1.0
0.4444444444	0.2222222222	0.1666666667	1.0
0.4444444444	0.2222222222	0.3333333333	1.0
0.4444444444	0.2222222222	-0.5000000000	1.0
0.4444444444	0.2222222222	-0.3333333333	1.0
0.4444444444	0.2222222222	-0.1666666667	1.0
0.4444444444	0.3333333333	0.0000000000	1.0
0.4444444444	0.3333333333	0.1666666667	1.0
0.4444444444	0.3333333333	0.3333333333	1.0
0.4444444444	0.3333333333	-0.5000000000	1.0
0.4444444444	0.3333333333	-0.3333333333	1.0
0.4444444444	0.3333333333	-0.1666666667	1.0
0.4444444444	0.4444444444	0.0000000000	1.0
0.4444444444	0.4444444444	0.1666666667	1.0
0.4444444444	0.4444444444	0.3333333333	1.0
0.4444444444	0.4444444444	-0.5000000000	1.0
0.4444444444	0.4444444444	-0.3333333333	1.0
0.4444444444	0.4444444444	-0.1666666667	1.0
0.4444444444	-0.4444444444	0.0000000000	1.0
0.4444444444	-0.4444444444	0.1666666667	1.0
0.4444444444	-0.4444444444	0.3333333333	1.0
0.4444444444	-0.4444444444	-0.5000000000	1.0
0.4444444444	-0.4444444444	-0.3333333333	1.0
0.4444444444	-0.4444444444	-0.1666666667	1.0
0.4444444444	-0.3333333333	0.0000000000	1.0
0.4444444444	-0.3333333333	0.1666666667	1.0
0.4444444444	-0.3333333333	0.3333333333	1.0
0.4444444444	-0.3333333333	-0.5000000000	1.0
0.4444444444	-0.3333333333	-0.3333333333	1.0
0.4444444444	-0.3333333333	-0.1666666667	1.0
0.4444444444	-0.2222222222	0.0000000000	1.0
0.4444444444	-0.2222222222	0.1666666667	1.0
0.4444444444	-0.2222222222	0.3333333333	1.0
0.4444444444	-0.2222222222	-0.5000000000	1.0
0.4444444444	-0.2222222222	-0.3333333333	1.0
0.4444444444	-0.2222222222	-0.1666666667	1.0
0.4444444444	-0.1111111111	0.0000000000	1.0
0.4444444444	-0.1111111111	0.1666666667	1.0
0.4444444444	-0.1111111111	0.3333333333	1.0
0.4444444444	-0.1111111111	-0.5000000000	1.0
0.4444444444	-0.1111111111	-0.3333333333	1.0
0.4444444444	-0.1111111111	-0.1666666667	1.0
-0.4444444444	0.0000000000	0.0000000000	1.0
-0.4444444444	0.0000000000	0.1666666667	1.0
-0.4444444444	0.0000000000	0.3333333333	1.0
-0.4444444444	0.0000000000	-0.5000000000	1.0
-0.4444444444	0.0000000000	-0.3333333333	1.0
-0.4444444444	0.0000000000	-0.1666666667	1.0
-0.4444444444	0.1111111111	0.0000000000	1.0
-0.4444444444	0.1111111111	0.1666666667	1.0
-0.4444444444	0.1111111111	0.3333333333	1.0
-0.4444444444	0.1111111111	-0.5000000000	1.0
-0.4444444444	0.1111111111	-0.3333333333	1.0
-0.4444444444	0.1111111111	-0.1666666667	1.0
-0.4444444444	0.2222222222	0.0000000000	1.0
-0.4444444444	0.2222222222	0.1666666667	1.0
-0.4444444444	0.2222222222	0.3333333333	1.0
-0.4444444444	0.2222222222	-0.5000000000	1.0
-0.4444444444	0.2222222222	-0.3333333333	1.0
-0.4444444444	0.2222222222	-0.1666666667	1.0
-0.4444444444	0.3333333333	0.0000000000	1.0
-0.4444444444	0.3333333333	0.1666666667	1.0
-0.4444444444	0.3333333333	0.3333333333	1.0
-0.4444444444	0.3333333333	-0.5000000000	1.0
-0.4444444444	0.3333333333	-0.3333333333	1.0
-0.4444444444	0.3333333333	-0.1666666667	1.0
-0.4444444444	0.4444444444	0.0000000000	1.0
-0.4444444444	0.4444444444	0.1666666667	1.0
-0.4444444444	0.4444444444	0.3333333333	1.0
-0.4444444444	0.4444444444	-0.5000000000	1.0
-0.4444444444	0.4444444444	-0.3333333333	1.0
-0.4444444444	0.4444444444	-0.1666666667	1.0
-0.4444444444	-0.4444444444	0.0000000000	1.0
-0.4444444444	-0.4444444444	0.1666666667	1.0
-0.4444444444	-0.4444444444	0.3333333333	1.0
-0.4444444444	-0.4444444444	-0.5000000000	1.0
-0.4444444444	-0.4444444444	-0.3333333333	1.0
-0.4444444444	-0.4444444444	-0.1666666667	1.0
-0.4444444444	-0.3333333333	0.0000000000	1.0
-0.4444444444	-0.3333333333	0.1666666667	1.0
-0.4444444444	-0.3333333333	0.3333333333	1.0
-0.4444444444	-0.3333333333	-0.5000000000	1.0
-0.4444444444	-0.3333333333	-0.3333333333	1.0
-0.4444444444	-0.3333333333	-0.1666666667	1.0
-0.4444444444	-0.2222222222	0.0000000000	1.0
-0.4444444444	-0.2222222222	0.1666666667	1.0
-0.4444444444	-0.2222222222	0.3333333333	1.0
-0.4444444444	-0.2222222222	-0.5000000000	1.0
-0.4444444444	-0.2222222222	-0.3333333333	1.0
-0.4444444444	-0.2222222222	-0.1666666667	1.0
-0.4444444444	-0.1111111111	0.0000000000	1.0
-0.4444444444	-0.1111111111	0.1666666667	1.0
-0.4444444444	-0.1111111111	0.3333333333	1.0
-0.4444444444	-0.1111111111	-0.5000000000	1.0
-0.4444444444	-0.1111111111	-0.3333333333	1.0
-0.4444444444	-0.1111111111	-0.1666666667	1.0
-0.3333333333	0.0000000000	0.0000000000	1.0
-0.3333333333	0.0000000000	0.1666666667	1.0
-0.3333333333	0.0000000000	0.3333333333	1.0
-0.3333333333	0.0000000000	-0.5000000000	1.0
-0.3333333333	0.0000000000	-0.3333333333	1.0
-0.3333333333	0.0000000000	-0.1666666667	1.0
-0.3333333333	0.1111111111	0.0000000000	1.0
-0.3333333333	0.1111111111	0.1666666667	1.0
-0.3333333333	0.1111111111	0.3333333333	1.0
-0.3333333333	0.1111111111	-0.5000000000	1.0
-0.3333333333	0.1111111111	-0.3333333333	1.0
-0.3333333333	0.1111111111	-0.1666666667	1.0
-0.3333333333	0.2222222222	0.0000000000	1.0
-0.3333333333	0.2222222222	0.1666666667	1.0
-0.3333333333	0.2222222222	0.3333333333	1.0
-0.3333333333	0.2222222222	-0.5000000000	1.0
-0.3333333333	0.2222222222	-0.3333333333	1.0
-0.3333333333	0.2222222222	-0.1666666667	1.0
-0.3333333333	0.3333333333	0.0000000000	1.0
-0.3333333333	0.3333333333	0.1666666667	1.0
-0.3333333333	0.3333333333	0.3333333333	1.0
-0.3333333333	0.3333333333	-0.5000000000	1.0
-0.3333333333	0.3333333333	-0.3333333333	1.0
-0.3333333333	0.3333333333	-0.1666666667	1.0
-0.3333333333	0.4444444444	0.0000000000	1.0
-0.3333333333	0.4444444444	0.1666666667	1.0
-0.3333333333	0.4444444444	0.3333333333	1.0
-0.3333333333	0.4444444444	-0.5000000000	1.0
-0.3333333333	0.4444444444	-0.3333333333	1.0
-0.3333333333	0.4444444444	-0.1666666667	1.0
-0.3333333333	-0.4444444444	0.0000000000	1.0
-0.3333333333	-0.4444444444	0.1666666667	1.0
-0.3333333333	-0.4444444444	0.3333333333	1.0
-0.3333333333	-0.4444444444	-0.5000000000	1.0
-0.3333333333	-0.4444444444	-0.3333333333	1.0
-0.3333333333	-0.4444444444	-0.1666666667	1.0
-0.3333333333	-0.3333333333	0.0000000000	1.0
-0.3333333333	-0.3333333333	0.1666666667	1.0
-0.3333333333	-0.3333333333	0.3333333333	1.0
-0.3333333333	-0.3333333333	-0.5000000000	1.0
-0.3333333333	-0.3333333333	-0.3333333333	1.0
-0.3333333333	-0.3333333333	-0.1666666667	1.0
-0.3333333333	-0.2222222222	0.0000000000	1.0
-0.3333333333	-0.2222222222	0.1666666667	1.0
-0.3333333333	-0.2222222222	0.3333333333	1.0
-0.3333333333	-0.2222222222	-0.5000000000	1.0
-0.3333333333	-0.2222222222	-0.3333333333	1.0
-0.3333333333	-0.2222222222	-0.1666666667	1.0
-0.3333333333	-0.1111111111	0.0000000000	1.0
-0.3333333333	-0.1111111111	0.1666666667	1.0
-0.3333333333	-0.1111111111	0.3333333333	1.0
-0.3333333333	-0.1111111111	-0.5000000000	1.0
-0.3333333333	-0.1111111111	-0.3333333333	1.0
-0.3333333333	-0.1111111111	-0.1666666667	1.0
-0.2222222222	0.0000000000	0.0000000000	1.0
-0.2222222222	0.0000000000	0.1666666667	1.0
-0.2222222222	0.0000000000	0.3333333333	1.0
-0.2222222222	0.0000000000	-0.5000000000	1.0
-0.2222222222	0.0000000000	-0.3333333333	1.0
-0.2222222222	0.0000000000	-0.1666666667	1.0
-0.2222222222	0.1111111111	0.0000000000	1.0
-0.2222222222	0.1111111111	0.1666666667	1.0
-0.2222222222	0.1111111111	0.3333333333	1.0
-0.2222222222	0.1111111111	-0.5000000000	1.0
-0.2222222222	0.1111111111	-0.3333333333	1.0
-0.2222222222	0.1111111111	-0.1666666667	1.0
-0.2222222222	0.2222222222	0.0000000000	1.0
-0.2222222222	0.2222222222	0.1666666667	1.0
-0.2222222222	0.2222222222	0.3333333333	1.0
-0.2222222222	0.2222222222	-0.5000000000	1.0
-0.2222222222	0.2222222222	-0.3333333333	1.0
-0.2222222222	0.2222222222	-0.1666666667	1.0
-0.2222222222	0.3333333333	0.0000000000	1.0
-0.2222222222	0.3333333333	0.1666666667	1.0
-0.2222222222	0.3333333333	0.3333333333	1.0
-0.2222222222	0.3333333333	-0.5000000000	1.0
-0.2222222222	0.3333333333	-0.3333333333	1.0
-0.2222222222	0.3333333333	-0.1666666667	1.0
-0.2222222222	0.4444444444	0.0000000000	1.0
-0.2222222222	0.4444444444	0.1666666667	1.0
-0.2222222222	0.4444444444	0.3333333333	1.0
-0.2222222222	0.4444444444	-0.5000000000	1.0
-0.2222222222	0.4444444444	-0.3333333333	1.0
-0.2222222222	0.4444444444	-0.1666666667	1.0
-0.2222222222	-0.4444444444	0.0000000000	1.0
-0.2222222222	-0.4444444444	0.1666666667	1.0
-0.2222222222	-0.4444444444	0.3333333333	1.0
-0.2222222222	-0.4444444444	-0.5000000000	1.0
-0.2222222222	-0.4444444444	-0.3333333333	1.0
-0.2222222222	-0.4444444444	-0.1666666667	1.0
-0.2222222222	-0.3333333333	0.0000000000	1.0
-0.2222222222	-0.3333333333	0.1666666667	1.0
-0.2222222222	-0.3333333333	0.3333333333	1.0
-0.2222222222	-0.3333333333	-0.5000000000	1.0
-0.2222222222	-0.3333333333	-0.3333333333	1.0
-0.2222222222	-0.3333333333	-0.1666666667	1.0
-0.2222222222	-0.2222222222	0.0000000000	1.0
-0.2222222222	-0.2222222222	0.1666666667	1.0
-0.2222222222	-0.2222222222	0.3333333333	1.0
-0.2222222222	-0.2222222222	-0.5000000000	1.0
-0.2222222222	-0.2222222222	-0.3333333333	1.0
-0.2222222222	-0.2222222222	-0.1666666667	1.0
-0.2222222222	-0.1111111111	0.0000000000	1.0
-0.2222222222	-0.1111111111	0.1666666667	1.0
-0.2222222222	-0.1111111111	0.3333333333	1.0
-0.2222222222	-0.1111111111	-0.5000000000	1.0
-0.2222222222	-0.1111111111	-0.3333333333	1.0
-0.2222222222	-0.1111111111	-0.1666666667	1.0
-0.1111111111	0.0000000000	0.0000000000	1.0
-0.1111111111	0.0000000000	0.1666666667	1.0
-0.1111111111	0.0000000000	0.3333333333	1.0
-0.1111111111	0.0000000000	-0.5000000000	1.0
-0.1111111111	0.0000000000	-0.3333333333	1.0
-0.1111111111	0.0000000000	-0.1666666667	1.0
-0.1111111111	0.1111111111	0.0000000000	1.0
-0.1111111111	0.1111111111	0.1666666667	1.0
-0.1111111111	0.1111111111	0.3333333333	1.0
-0.1111111111	0.1111111111	-0.5000000000	1.0
-0.1111111111	0.1111111111	-0.3333333333	1.0
-0.1111111111	0.1111111111	-0.1666666667	1.0
-0.1111111111	0.2222222222	0.0000000000	1.0
-0.1111111111	0.2222222222	0.1666666667	1.0
-0.1111111111	0.2222222222	0.3333333333	1.0
-0.1111111111	0.2222222222	-0.5000000000	1.0
-0.1111111111	0.2222222222	-0.3333333333	1.0
-0.1111111111	0.2222222222	-0.1666666667	1.0
-0.1111111111	0.3333333333	0.0000000000	1.0
-0.1111111111	0.3333333333	0.1666666667	1.0
-0.1111111111	0.3333333333	0.3333333333	1.0
-0.1111111111	0.3333333333	-0.5000000000	1.0
-0.1111111111	0.3333333333	-0.3333333333	1.0
-0.1111111111	0.3333333333	-0.1666666667	1.0
-0.1111111111	0.4444444444	0.0000000000	1.0
-0.1111111111	0.4444444444	0.1666666667	1.0
-0.1111111111	0.4444444444	0.3333333333	1.0
-0.1111111111	0.4444444444	-0.5000000000	1.0
-0.1111111111	0.4444444444	-0.3333333333	1.0
-0.1111111111	0.4444444444	-0.1666666667	1.0
-0.1111111111	-0.4444444444	0.0000000000	1.0
-0.1111111111	-0.4444444444	0.1666666667	1.0
-0.1111111111	-0.4444444444	0.3333333333	1.0
-0.1111111111	-0.4444444444	-0.5000000000	1.0
-0.1111111111	-0.4444444444	-0.3333333333	1.0
-0.1111111111	-0.4444444444	-0.1666666667	1.0
-0.1111111111	-0.3333333333	0.0000000000	1.0
-0.1111111111	-0.3333333333	0.1666666667	1.0
-0.1111111111	-0.3333333333	0.3333333333	1.0
-0.1111111111	-0.3333333333	-0.5000000000	1.0
-0.1111111111	-0.3333333333	-0.3333333333	1.0
-0.1111111111	-0.3333333333	-0.1666666667	1.0
-0.1111111111	-0.2222222222	0.0000000000	1.0
-0.1111111111	-0.2222222222	0.1666666667	1.0
-0.1111111111	-0.2222222222	0.3333333333	1.0
-0.1111111111	-0.2222222222	-0.5000000000	1.0
-0.1111111111	-0.2222222222	-0.3333333333	1.0
-0.1111111111	-0.2222222222	-0.1666666667	1.0
-0.1111111111	-0.1111111111	0.0000000000	1.0
-0.1111111111	-0.1111111111	0.1666666667	1.0
-0.1111111111	-0.1111111111	0.3333333333	1.0
-0.1111111111	-0.1111111111	-0.5000000000	1.0
-0.1111111111	-0.1111111111	-0.3333333333	1.0
-0.1111111111	-0.1111111111	-0.1666666667	1.0
